p tw 42 1051 1 
1 2 
1 3 
1 4 
1 5 
1 6 
1 7 
1 8 
1 9 
1 10 
1 11 
1 12 
1 13 
1 14 
1 15 
1 16 
1 17 
1 18 
1 19 
1 20 
1 21 
2 22 
2 23 
2 24 
2 25 
2 26 
2 27 
2 28 
2 29 
2 30 
2 31 
2 32 
2 33 
2 34 
2 35 
2 36 
2 37 
2 38 
2 39 
2 40 
2 41 
2 42 
1 22 
1 23 
1 24 
1 25 
1 26 
2 22 
2 27 
2 28 
2 29 
2 30 
3 22 
3 31 
3 32 
3 33 
3 34 
4 22 
4 35 
4 36 
4 37 
4 38 
5 22 
5 39 
5 40 
5 41 
5 42 
6 23 
6 27 
6 31 
6 35 
6 39 
7 23 
7 28 
7 32 
7 36 
7 40 
8 23 
8 29 
8 33 
8 37 
8 41 
9 23 
9 30 
9 34 
9 38 
9 42 
10 24 
10 27 
10 32 
10 37 
10 42 
11 24 
11 28 
11 31 
11 38 
11 41 
12 24 
12 29 
12 34 
12 35 
12 40 
13 24 
13 30 
13 33 
13 36 
13 39 
14 25 
14 27 
14 33 
14 38 
14 40 
15 25 
15 28 
15 34 
15 37 
15 39 
16 25 
16 29 
16 31 
16 36 
16 42 
17 25 
17 30 
17 32 
17 35 
17 41 
18 26 
18 27 
18 34 
18 36 
18 41 
19 26 
19 28 
19 33 
19 35 
19 42 
20 26 
20 29 
20 32 
20 38 
20 39 
21 26 
21 30 
21 31 
21 37 
21 40 
